p cnf 500 800
40 54 75 101 102 0
40 54 75 101 -102 0
40 54 75 -101 102 0
40 54 75 -101 -102 0
-40 54 58 103 104 0
-40 54 58 103 -104 0
-40 54 58 -103 104 0
-40 54 58 -103 -104 0
-40 -58 69 105 106 0
-40 -58 69 105 -106 0
-40 -58 69 -105 106 0
-40 -58 69 -105 -106 0
-40 -69 95 107 108 0
-40 -69 95 107 -108 0
-40 -69 95 -107 108 0
-40 -69 95 -107 -108 0
-51 -69 95 109 110 0
-51 -69 95 109 -110 0
-51 -69 95 -109 110 0
-51 -69 95 -109 -110 0
64 75 89 111 112 0
64 75 89 111 -112 0
64 75 89 -111 112 0
64 75 89 -111 -112 0
26 -64 89 113 114 0
26 -64 89 113 -114 0
26 -64 89 -113 114 0
26 -64 89 -113 -114 0
26 -69 -95 115 116 0
26 -69 -95 115 -116 0
26 -69 -95 -115 116 0
26 -69 -95 -115 -116 0
-26 75 -95 117 118 0
-26 75 -95 117 -118 0
-26 75 -95 -117 118 0
-26 75 -95 -117 -118 0
11 28 82 119 120 0
11 28 82 119 -120 0
11 28 82 -119 120 0
11 28 82 -119 -120 0
-11 23 82 121 122 0
-11 23 82 121 -122 0
-11 23 82 -121 122 0
-11 23 82 -121 -122 0
14 -23 28 123 124 0
14 -23 28 123 -124 0
14 -23 28 -123 124 0
14 -23 28 -123 -124 0
-11 -14 28 125 126 0
-11 -14 28 125 -126 0
-11 -14 28 -125 126 0
-11 -14 28 -125 -126 0
-28 -75 88 127 128 0
-28 -75 88 127 -128 0
-28 -75 88 -127 128 0
-28 -75 88 -127 -128 0
-28 84 -88 129 130 0
-28 84 -88 129 -130 0
-28 84 -88 -129 130 0
-28 84 -88 -129 -130 0
62 -75 -84 131 132 0
62 -75 -84 131 -132 0
62 -75 -84 -131 132 0
62 -75 -84 -131 -132 0
12 51 -62 133 134 0
12 51 -62 133 -134 0
12 51 -62 -133 134 0
12 51 -62 -133 -134 0
12 -51 -62 135 136 0
12 -51 -62 135 -136 0
12 -51 -62 -135 136 0
12 -51 -62 -135 -136 0
-12 43 65 137 138 0
-12 43 65 137 -138 0
-12 43 65 -137 138 0
-12 43 65 -137 -138 0
-12 -65 82 139 140 0
-12 -65 82 139 -140 0
-12 -65 82 -139 140 0
-12 -65 82 -139 -140 0
-12 -28 -43 141 142 0
-12 -28 -43 141 -142 0
-12 -28 -43 -141 142 0
-12 -28 -43 -141 -142 0
54 -75 -82 143 144 0
54 -75 -82 143 -144 0
54 -75 -82 -143 144 0
54 -75 -82 -143 -144 0
-54 77 86 145 146 0
-54 77 86 145 -146 0
-54 77 86 -145 146 0
-54 77 86 -145 -146 0
8 -86 94 147 148 0
8 -86 94 147 -148 0
8 -86 94 -147 148 0
8 -86 94 -147 -148 0
-8 36 -86 149 150 0
-8 36 -86 149 -150 0
-8 36 -86 -149 150 0
-8 36 -86 -149 -150 0
-8 -36 -86 151 152 0
-8 -36 -86 151 -152 0
-8 -36 -86 -151 152 0
-8 -36 -86 -151 -152 0
24 77 -94 153 154 0
24 77 -94 153 -154 0
24 77 -94 -153 154 0
24 77 -94 -153 -154 0
4 7 78 155 156 0
4 7 78 155 -156 0
4 7 78 -155 156 0
4 7 78 -155 -156 0
4 -78 84 157 158 0
4 -78 84 157 -158 0
4 -78 84 -157 158 0
4 -78 84 -157 -158 0
4 7 -84 159 160 0
4 7 -84 159 -160 0
4 7 -84 -159 160 0
4 7 -84 -159 -160 0
-4 7 -77 161 162 0
-4 7 -77 161 -162 0
-4 7 -77 -161 162 0
-4 7 -77 -161 -162 0
-7 63 76 163 164 0
-7 63 76 163 -164 0
-7 63 76 -163 164 0
-7 63 76 -163 -164 0
-7 24 -63 165 166 0
-7 24 -63 165 -166 0
-7 24 -63 -165 166 0
-7 24 -63 -165 -166 0
-7 -55 -63 167 168 0
-7 -55 -63 167 -168 0
-7 -55 -63 -167 168 0
-7 -55 -63 -167 -168 0
24 -76 93 169 170 0
24 -76 93 169 -170 0
24 -76 93 -169 170 0
24 -76 93 -169 -170 0
-76 -77 -93 171 172 0
-76 -77 -93 171 -172 0
-76 -77 -93 -171 172 0
-76 -77 -93 -171 -172 0
6 -24 98 173 174 0
6 -24 98 173 -174 0
6 -24 98 -173 174 0
6 -24 98 -173 -174 0
6 94 -98 175 176 0
6 94 -98 175 -176 0
6 94 -98 -175 176 0
6 94 -98 -175 -176 0
-6 -54 94 177 178 0
-6 -54 94 177 -178 0
-6 -54 94 -177 178 0
-6 -54 94 -177 -178 0
62 -94 96 179 180 0
62 -94 96 179 -180 0
62 -94 96 -179 180 0
62 -94 96 -179 -180 0
-62 -94 96 181 182 0
-62 -94 96 181 -182 0
-62 -94 96 -181 182 0
-62 -94 96 -181 -182 0
-54 -88 96 183 184 0
-54 -88 96 183 -184 0
-54 -88 96 -183 184 0
-54 -88 96 -183 -184 0
20 -24 -96 185 186 0
20 -24 -96 185 -186 0
20 -24 -96 -185 186 0
20 -24 -96 -185 -186 0
-20 -24 -96 187 188 0
-20 -24 -96 187 -188 0
-20 -24 -96 -187 188 0
-20 -24 -96 -187 -188 0
20 27 32 189 190 0
20 27 32 189 -190 0
20 27 32 -189 190 0
20 27 32 -189 -190 0
-20 27 32 191 192 0
-20 27 32 191 -192 0
-20 27 32 -191 192 0
-20 27 32 -191 -192 0
-15 -53 78 193 194 0
-15 -53 78 193 -194 0
-15 -53 78 -193 194 0
-15 -53 78 -193 -194 0
26 44 -46 195 196 0
26 44 -46 195 -196 0
26 44 -46 -195 196 0
26 44 -46 -195 -196 0
-26 44 -89 197 198 0
-26 44 -89 197 -198 0
-26 44 -89 -197 198 0
-26 44 -89 -197 -198 0
12 35 -39 199 200 0
12 35 -39 199 -200 0
12 35 -39 -199 200 0
12 35 -39 -199 -200 0
1 -51 -80 201 202 0
1 -51 -80 201 -202 0
1 -51 -80 -201 202 0
1 -51 -80 -201 -202 0
-3 21 60 203 204 0
-3 21 60 203 -204 0
-3 21 60 -203 204 0
-3 21 60 -203 -204 0
-3 -48 60 205 206 0
-3 -48 60 205 -206 0
-3 -48 60 -205 206 0
-3 -48 60 -205 -206 0
-48 -60 100 207 208 0
-48 -60 100 207 -208 0
-48 -60 100 -207 208 0
-48 -60 100 -207 -208 0
-48 -60 61 209 210 0
-48 -60 61 209 -210 0
-48 -60 61 -209 210 0
-48 -60 61 -209 -210 0
-60 -61 -100 211 212 0
-60 -61 -100 211 -212 0
-60 -61 -100 -211 212 0
-60 -61 -100 -211 -212 0
9 -22 -93 213 214 0
9 -22 -93 213 -214 0
9 -22 -93 -213 214 0
9 -22 -93 -213 -214 0
-21 44 93 215 216 0
-21 44 93 215 -216 0
-21 44 93 -215 216 0
-21 44 93 -215 -216 0
-44 46 69 217 218 0
-44 46 69 217 -218 0
-44 46 69 -217 218 0
-44 46 69 -217 -218 0
-46 69 93 219 220 0
-46 69 93 219 -220 0
-46 69 93 -219 220 0
-46 69 93 -219 -220 0
13 -46 -85 221 222 0
13 -46 -85 221 -222 0
13 -46 -85 -221 222 0
13 -46 -85 -221 -222 0
-13 -44 -85 223 224 0
-13 -44 -85 223 -224 0
-13 -44 -85 -223 224 0
-13 -44 -85 -223 -224 0
41 43 84 225 226 0
41 43 84 225 -226 0
41 43 84 -225 226 0
41 43 84 -225 -226 0
-41 43 87 227 228 0
-41 43 87 227 -228 0
-41 43 87 -227 228 0
-41 43 87 -227 -228 0
-37 49 74 229 230 0
-37 49 74 229 -230 0
-37 49 74 -229 230 0
-37 49 74 -229 -230 0
-29 -37 -70 231 232 0
-29 -37 -70 231 -232 0
-29 -37 -70 -231 232 0
-29 -37 -70 -231 -232 0
-37 49 -74 233 234 0
-37 49 -74 233 -234 0
-37 49 -74 -233 234 0
-37 49 -74 -233 -234 0
33 35 41 235 236 0
33 35 41 235 -236 0
33 35 41 -235 236 0
33 35 41 -235 -236 0
-15 33 41 237 238 0
-15 33 41 237 -238 0
-15 33 41 -237 238 0
-15 33 41 -237 -238 0
-5 -43 -85 239 240 0
-5 -43 -85 239 -240 0
-5 -43 -85 -239 240 0
-5 -43 -85 -239 -240 0
-92 -93 -98 241 242 0
-92 -93 -98 241 -242 0
-92 -93 -98 -241 242 0
-92 -93 -98 -241 -242 0
15 50 63 243 244 0
15 50 63 243 -244 0
15 50 63 -243 244 0
15 50 63 -243 -244 0
-21 -58 87 245 246 0
-21 -58 87 245 -246 0
-21 -58 87 -245 246 0
-21 -58 87 -245 -246 0
25 -39 -97 247 248 0
25 -39 -97 247 -248 0
25 -39 -97 -247 248 0
25 -39 -97 -247 -248 0
-25 51 -97 249 250 0
-25 51 -97 249 -250 0
-25 51 -97 -249 250 0
-25 51 -97 -249 -250 0
-25 -39 -97 251 252 0
-25 -39 -97 251 -252 0
-25 -39 -97 -251 252 0
-25 -39 -97 -251 -252 0
-4 -38 -52 253 254 0
-4 -38 -52 253 -254 0
-4 -38 -52 -253 254 0
-4 -38 -52 -253 -254 0
59 79 95 255 256 0
59 79 95 255 -256 0
59 79 95 -255 256 0
59 79 95 -255 -256 0
14 59 -79 257 258 0
14 59 -79 257 -258 0
14 59 -79 -257 258 0
14 59 -79 -257 -258 0
76 -89 99 259 260 0
76 -89 99 259 -260 0
76 -89 99 -259 260 0
76 -89 99 -259 -260 0
40 76 -99 261 262 0
40 76 -99 261 -262 0
40 76 -99 -261 262 0
40 76 -99 -261 -262 0
40 -76 -89 263 264 0
40 -76 -89 263 -264 0
40 -76 -89 -263 264 0
40 -76 -89 -263 -264 0
-5 -22 46 265 266 0
-5 -22 46 265 -266 0
-5 -22 46 -265 266 0
-5 -22 46 -265 -266 0
-31 86 100 267 268 0
-31 86 100 267 -268 0
-31 86 100 -267 268 0
-31 86 100 -267 -268 0
10 31 62 269 270 0
10 31 62 269 -270 0
10 31 62 -269 270 0
10 31 62 -269 -270 0
14 31 58 271 272 0
14 31 58 271 -272 0
14 31 58 -271 272 0
14 31 58 -271 -272 0
10 31 -58 273 274 0
10 31 -58 273 -274 0
10 31 -58 -273 274 0
10 31 -58 -273 -274 0
-30 42 -67 275 276 0
-30 42 -67 275 -276 0
-30 42 -67 -275 276 0
-30 42 -67 -275 -276 0
-21 -30 42 277 278 0
-21 -30 42 277 -278 0
-21 -30 42 -277 278 0
-21 -30 42 -277 -278 0
-30 42 -77 279 280 0
-30 42 -77 279 -280 0
-30 42 -77 -279 280 0
-30 42 -77 -279 -280 0
5 -11 13 281 282 0
5 -11 13 281 -282 0
5 -11 13 -281 282 0
5 -11 13 -281 -282 0
11 -26 92 283 284 0
11 -26 92 283 -284 0
11 -26 92 -283 284 0
11 -26 92 -283 -284 0
15 38 83 285 286 0
15 38 83 285 -286 0
15 38 83 -285 286 0
15 38 83 -285 -286 0
-13 56 -100 287 288 0
-13 56 -100 287 -288 0
-13 56 -100 -287 288 0
-13 56 -100 -287 -288 0
-16 47 87 289 290 0
-16 47 87 289 -290 0
-16 47 87 -289 290 0
-16 47 87 -289 -290 0
47 83 -87 291 292 0
47 83 -87 291 -292 0
47 83 -87 -291 292 0
47 83 -87 -291 -292 0
6 -35 92 293 294 0
6 -35 92 293 -294 0
6 -35 92 -293 294 0
6 -35 92 -293 -294 0
-6 -65 92 295 296 0
-6 -65 92 295 -296 0
-6 -65 92 -295 296 0
-6 -65 92 -295 -296 0
61 66 -82 297 298 0
61 66 -82 297 -298 0
61 66 -82 -297 298 0
61 66 -82 -297 -298 0
-1 -18 68 299 300 0
-1 -18 68 299 -300 0
-1 -18 68 -299 300 0
-1 -18 68 -299 -300 0
-18 52 -68 301 302 0
-18 52 -68 301 -302 0
-18 52 -68 -301 302 0
-18 52 -68 -301 -302 0
32 64 -96 303 304 0
32 64 -96 303 -304 0
32 64 -96 -303 304 0
32 64 -96 -303 -304 0
-8 35 -67 305 306 0
-8 35 -67 305 -306 0
-8 35 -67 -305 306 0
-8 35 -67 -305 -306 0
10 -83 -90 307 308 0
10 -83 -90 307 -308 0
10 -83 -90 -307 308 0
10 -83 -90 -307 -308 0
-10 -32 -91 309 310 0
-10 -32 -91 309 -310 0
-10 -32 -91 -309 310 0
-10 -32 -91 -309 -310 0
20 68 72 311 312 0
20 68 72 311 -312 0
20 68 72 -311 312 0
20 68 72 -311 -312 0
16 85 -95 313 314 0
16 85 -95 313 -314 0
16 85 -95 -313 314 0
16 85 -95 -313 -314 0
9 29 30 315 316 0
9 29 30 315 -316 0
9 29 30 -315 316 0
9 29 30 -315 -316 0
-1 -29 30 317 318 0
-1 -29 30 317 -318 0
-1 -29 30 -317 318 0
-1 -29 30 -317 -318 0
39 45 51 319 320 0
39 45 51 319 -320 0
39 45 51 -319 320 0
39 45 51 -319 -320 0
39 45 -82 321 322 0
39 45 -82 321 -322 0
39 45 -82 -321 322 0
39 45 -82 -321 -322 0
19 70 88 323 324 0
19 70 88 323 -324 0
19 70 88 -323 324 0
19 70 88 -323 -324 0
-19 -45 88 325 326 0
-19 -45 88 325 -326 0
-19 -45 88 -325 326 0
-19 -45 88 -325 -326 0
-36 -45 -70 327 328 0
-36 -45 -70 327 -328 0
-36 -45 -70 -327 328 0
-36 -45 -70 -327 -328 0
-59 -70 -81 329 330 0
-59 -70 -81 329 -330 0
-59 -70 -81 -329 330 0
-59 -70 -81 -329 -330 0
-1 -52 81 331 332 0
-1 -52 81 331 -332 0
-1 -52 81 -331 332 0
-1 -52 81 -331 -332 0
15 -35 55 333 334 0
15 -35 55 333 -334 0
15 -35 55 -333 334 0
15 -35 55 -333 -334 0
-18 -45 48 335 336 0
-18 -45 48 335 -336 0
-18 -45 48 -335 336 0
-18 -45 48 -335 -336 0
-35 -53 -68 337 338 0
-35 -53 -68 337 -338 0
-35 -53 -68 -337 338 0
-35 -53 -68 -337 -338 0
16 -38 -64 339 340 0
16 -38 -64 339 -340 0
16 -38 -64 -339 340 0
16 -38 -64 -339 -340 0
27 46 57 341 342 0
27 46 57 341 -342 0
27 46 57 -341 342 0
27 46 57 -341 -342 0
9 -27 57 343 344 0
9 -27 57 343 -344 0
9 -27 57 -343 344 0
9 -27 57 -343 -344 0
-32 -43 70 345 346 0
-32 -43 70 345 -346 0
-32 -43 70 -345 346 0
-32 -43 70 -345 -346 0
-23 34 -67 347 348 0
-23 34 -67 347 -348 0
-23 34 -67 -347 348 0
-23 34 -67 -347 -348 0
55 85 -92 349 350 0
55 85 -92 349 -350 0
55 85 -92 -349 350 0
55 85 -92 -349 -350 0
18 -25 48 351 352 0
18 -25 48 351 -352 0
18 -25 48 -351 352 0
18 -25 48 -351 -352 0
-36 67 -78 353 354 0
-36 67 -78 353 -354 0
-36 67 -78 -353 354 0
-36 67 -78 -353 -354 0
-59 66 86 355 356 0
-59 66 86 355 -356 0
-59 66 86 -355 356 0
-59 66 86 -355 -356 0
-4 -44 60 357 358 0
-4 -44 60 357 -358 0
-4 -44 60 -357 358 0
-4 -44 60 -357 -358 0
-20 -31 -78 359 360 0
-20 -31 -78 359 -360 0
-20 -31 -78 -359 360 0
-20 -31 -78 -359 -360 0
-61 -80 97 361 362 0
-61 -80 97 361 -362 0
-61 -80 97 -361 362 0
-61 -80 97 -361 -362 0
21 -84 91 363 364 0
21 -84 91 363 -364 0
21 -84 91 -363 364 0
21 -84 91 -363 -364 0
22 52 -90 365 366 0
22 52 -90 365 -366 0
22 52 -90 -365 366 0
22 52 -90 -365 -366 0
73 -83 -98 367 368 0
73 -83 -98 367 -368 0
73 -83 -98 -367 368 0
73 -83 -98 -367 -368 0
13 80 -91 369 370 0
13 80 -91 369 -370 0
13 80 -91 -369 370 0
13 80 -91 -369 -370 0
1 -15 19 371 372 0
1 -15 19 371 -372 0
1 -15 19 -371 372 0
1 -15 19 -371 -372 0
64 83 90 373 374 0
64 83 90 373 -374 0
64 83 90 -373 374 0
64 83 90 -373 -374 0
16 33 99 375 376 0
16 33 99 375 -376 0
16 33 99 -375 376 0
16 33 99 -375 -376 0
-16 -65 99 377 378 0
-16 -65 99 377 -378 0
-16 -65 99 -377 378 0
-16 -65 99 -377 -378 0
-16 53 -74 379 380 0
-16 53 -74 379 -380 0
-16 53 -74 -379 380 0
-16 53 -74 -379 -380 0
53 -63 85 381 382 0
53 -63 85 381 -382 0
53 -63 85 -381 382 0
53 -63 85 -381 -382 0
17 61 -80 383 384 0
17 61 -80 383 -384 0
17 61 -80 -383 384 0
17 61 -80 -383 -384 0
3 17 -61 385 386 0
3 17 -61 385 -386 0
3 17 -61 -385 386 0
3 17 -61 -385 -386 0
-41 74 -83 387 388 0
-41 74 -83 387 -388 0
-41 74 -83 -387 388 0
-41 74 -83 -387 -388 0
47 -72 -73 389 390 0
47 -72 -73 389 -390 0
47 -72 -73 -389 390 0
47 -72 -73 -389 -390 0
8 30 72 391 392 0
8 30 72 391 -392 0
8 30 72 -391 392 0
8 30 72 -391 -392 0
-27 -34 53 393 394 0
-27 -34 53 393 -394 0
-27 -34 53 -393 394 0
-27 -34 53 -393 -394 0
1 56 97 395 396 0
1 56 97 395 -396 0
1 56 97 -395 396 0
1 56 97 -395 -396 0
29 -68 79 397 398 0
29 -68 79 397 -398 0
29 -68 79 -397 398 0
29 -68 79 -397 -398 0
67 -73 -92 399 400 0
67 -73 -92 399 -400 0
67 -73 -92 -399 400 0
67 -73 -92 -399 -400 0
18 -57 89 401 402 0
18 -57 89 401 -402 0
18 -57 89 -401 402 0
18 -57 89 -401 -402 0
22 36 91 403 404 0
22 36 91 403 -404 0
22 36 91 -403 404 0
22 36 91 -403 -404 0
-14 -23 56 405 406 0
-14 -23 56 405 -406 0
-14 -23 56 -405 406 0
-14 -23 56 -405 -406 0
-52 68 100 407 408 0
-52 68 100 407 -408 0
-52 68 100 -407 408 0
-52 68 100 -407 -408 0
37 -38 -50 409 410 0
37 -38 -50 409 -410 0
37 -38 -50 -409 410 0
37 -38 -50 -409 -410 0
-13 -33 57 411 412 0
-13 -33 57 411 -412 0
-13 -33 57 -411 412 0
-13 -33 57 -411 -412 0
55 58 59 413 414 0
55 58 59 413 -414 0
55 58 59 -413 414 0
55 58 59 -413 -414 0
19 36 37 415 416 0
19 36 37 415 -416 0
19 36 37 -415 416 0
19 36 37 -415 -416 0
-19 78 97 417 418 0
-19 78 97 417 -418 0
-19 78 97 -417 418 0
-19 78 97 -417 -418 0
3 -14 37 419 420 0
3 -14 37 419 -420 0
3 -14 37 -419 420 0
3 -14 37 -419 -420 0
-5 -57 98 421 422 0
-5 -57 98 421 -422 0
-5 -57 98 -421 422 0
-5 -57 98 -421 -422 0
-9 72 -87 423 424 0
-9 72 -87 423 -424 0
-9 72 -87 -423 424 0
-9 72 -87 -423 -424 0
48 -90 -99 425 426 0
48 -90 -99 425 -426 0
48 -90 -99 -425 426 0
48 -90 -99 -425 -426 0
23 -55 -99 427 428 0
23 -55 -99 427 -428 0
23 -55 -99 -427 428 0
23 -55 -99 -427 -428 0
39 -64 -81 429 430 0
39 -64 -81 429 -430 0
39 -64 -81 -429 430 0
39 -64 -81 -429 -430 0
66 81 -87 431 432 0
66 81 -87 431 -432 0
66 81 -87 -431 432 0
66 81 -87 -431 -432 0
-17 -41 90 433 434 0
-17 -41 90 433 -434 0
-17 -41 90 -433 434 0
-17 -41 90 -433 -434 0
-17 -53 -57 435 436 0
-17 -53 -57 435 -436 0
-17 -53 -57 -435 436 0
-17 -53 -57 -435 -436 0
-47 -79 80 437 438 0
-47 -79 80 437 -438 0
-47 -79 80 -437 438 0
-47 -79 80 -437 -438 0
-3 -42 -56 439 440 0
-3 -42 -56 439 -440 0
-3 -42 -56 -439 440 0
-3 -42 -56 -439 -440 0
3 -27 -33 441 442 0
3 -27 -33 441 -442 0
3 -27 -33 -441 442 0
3 -27 -33 -441 -442 0
-6 22 -34 443 444 0
-6 22 -34 443 -444 0
-6 22 -34 -443 444 0
-6 22 -34 -443 -444 0
-22 -34 81 445 446 0
-22 -34 81 445 -446 0
-22 -34 81 -445 446 0
-22 -34 81 -445 -446 0
-2 23 73 447 448 0
-2 23 73 447 -448 0
-2 23 73 -447 448 0
-2 23 73 -447 -448 0
29 -55 -59 449 450 0
29 -55 -59 449 -450 0
29 -55 -59 -449 450 0
29 -55 -59 -449 -450 0
-10 65 -79 451 452 0
-10 65 -79 451 -452 0
-10 65 -79 -451 452 0
-10 65 -79 -451 -452 0
34 63 79 453 454 0
34 63 79 453 -454 0
34 63 79 -453 454 0
34 63 79 -453 -454 0
67 -71 -88 455 456 0
67 -71 -88 455 -456 0
67 -71 -88 -455 456 0
67 -71 -88 -455 -456 0
38 -50 90 457 458 0
38 -50 90 457 -458 0
38 -50 90 -457 458 0
38 -50 90 -457 -458 0
-10 25 98 459 460 0
-10 25 98 459 -460 0
-10 25 98 -459 460 0
-10 25 98 -459 -460 0
52 73 -91 461 462 0
52 73 -91 461 -462 0
52 73 -91 -461 462 0
52 73 -91 -461 -462 0
45 -73 91 463 464 0
45 -73 91 463 -464 0
45 -73 91 -463 464 0
45 -73 91 -463 -464 0
25 34 38 465 466 0
25 34 38 465 -466 0
25 34 38 -465 466 0
25 34 38 -465 -466 0
-9 -47 -72 467 468 0
-9 -47 -72 467 -468 0
-9 -47 -72 -467 468 0
-9 -47 -72 -467 -468 0
5 8 -17 469 470 0
5 8 -17 469 -470 0
5 8 -17 -469 470 0
5 8 -17 -469 -470 0
2 -32 71 471 472 0
2 -32 71 471 -472 0
2 -32 71 -471 472 0
2 -32 71 -471 -472 0
-9 65 80 473 474 0
-9 65 80 473 -474 0
-9 65 80 -473 474 0
-9 65 80 -473 -474 0
-47 -49 -66 475 476 0
-47 -49 -66 475 -476 0
-47 -49 -66 -475 476 0
-47 -49 -66 -475 -476 0
-19 -33 -50 477 478 0
-19 -33 -50 477 -478 0
-19 -33 -50 -477 478 0
-19 -33 -50 -477 -478 0
-42 -56 -66 479 480 0
-42 -56 -66 479 -480 0
-42 -56 -66 -479 480 0
-42 -56 -66 -479 -480 0
17 -56 -74 481 482 0
17 -56 -74 481 -482 0
17 -56 -74 -481 482 0
17 -56 -74 -481 -482 0
5 -31 77 483 484 0
5 -31 77 483 -484 0
5 -31 77 -483 484 0
5 -31 77 -483 -484 0
2 11 -100 485 486 0
2 11 -100 485 -486 0
2 11 -100 -485 486 0
2 11 -100 -485 -486 0
18 -49 71 487 488 0
18 -49 71 487 -488 0
18 -49 71 -487 488 0
18 -49 71 -487 -488 0
2 -2 49 489 490 0
2 -2 49 489 -490 0
2 -2 49 -489 490 0
2 -2 49 -489 -490 0
50 70 -72 491 492 0
50 70 -72 491 -492 0
50 70 -72 -491 492 0
50 70 -72 -491 -492 0
21 -42 74 493 494 0
21 -42 74 493 -494 0
21 -42 74 -493 494 0
21 -42 74 -493 -494 0
-49 -71 -81 495 496 0
-49 -71 -81 495 -496 0
-49 -71 -81 -495 496 0
-49 -71 -81 -495 -496 0
-29 -66 71 497 498 0
-29 -66 71 497 -498 0
-29 -66 71 -497 498 0
-29 -66 71 -497 -498 0
-2 50 -71 499 500 0
-2 50 -71 499 -500 0
-2 50 -71 -499 500 0
-2 50 -71 -499 -500 0
